
--- Job 2_company_pece.gms Start 02/13/26 16:26:28 52.5.0 9bc771bf WEX-WEI x86 64bit/MS Windows
--- Applying:
    C:\GAMS\52\gmsprmNT.txt
--- GAMS Parameters defined
    Input "C:\Users\Sergio URJC\Documents\UR_Gams\2_company_pece.gms"
    PageSize 0
    ScrDir "C:\Users\Sergio URJC\Documents\UR_Gams\225a\"
    SysDir C:\GAMS\52\
    LogOption 3
    AppendLog 1
    ErrMsg 1
    ErrorLog 99
    IDE 1
    LstTitleLeftAligned 1
Licensee: GAMS Demo, for EULA and demo limitations see   G251112+0003Cc-GEN
          https://www.gams.com/latest/docs/UG%5FLicense.html         DC0000
          C:\GAMS\52\gamslice.txt
          c477a4c4-8ac0-401f
          v:2                                                              
          Demo license for demonstration and instructional purposes only
System information: 10 physical cores and 16 Gb physical memory detected
GAMS 52.5.0   Copyright (C) 1987-2026 GAMS Development. All rights reserved
--- Starting compilation
--- 2_company_pece.gms(25) 2 Mb
--- Starting execution: elapsed 0:00:00.016
--- Generating LP model Company_Pece
--- 2_company_pece.gms(23) 3 Mb
---   4 rows  4 columns  10 non-zeroes
--- Range statistics (absolute non-zero finite values)
--- RHS       [min, max] : [ 4.800E+01, 2.000E+03] - Zero values observed as well
--- Bound     [min, max] : [        NA,        NA] - Zero values observed as well
--- Matrix    [min, max] : [ 1.000E+00, 6.100E+02]
--- Executing CPLEX (Solvelink=2): elapsed 0:00:00.037

IBM ILOG CPLEX   52.5.0 9bc771bf Jan 28, 2026          WEI x86 64bit/MS Window

*** This solver runs with a demo license. No commercial use.
--- GMO setup time: 0.00s
--- GMO memory 0.50 Mb (peak 0.50 Mb)
--- Dictionary memory 0.00 Mb
--- Cplex 22.1.2.0 link memory 0.00 Mb (peak 0.00 Mb)
--- Starting Cplex

Version identifier: 22.1.2.0 | 2024-11-25 | 0edbb82fd
CPXPARAM_Advance                                 0
CPXPARAM_Simplex_Display                         2
CPXPARAM_MIP_Display                             4
CPXPARAM_MIP_Pool_Capacity                       0
CPXPARAM_MIP_Tolerances_AbsMIPGap                0
Tried aggregator 1 time.
LP Presolve eliminated 1 rows and 1 columns.
Reduced LP has 2 rows, 3 columns, and 5 nonzeros.
Presolve time = 0.00 sec. (0.00 ticks)

Iteration      Dual Objective            In Variable           Out Variable
     1 sI            0.000000                     xb    restriction_1 slack
     2           67440.000000                     xa    restriction_3 slack
     3           66400.000000                     xc                     xb

--- LP status (1): optimal.
--- Cplex Time: 0.00sec (det. 0.01 ticks)


Optimal solution found
Objective:        66400.000000

--- Reading solution for model Company_Pece
--- Executing after solve: elapsed 0:00:00.101
--- 2_company_pece.gms(25) 3 Mb
*** Status: Normal completion
--- Job 2_company_pece.gms Stop 02/13/26 16:26:28 elapsed 0:00:00.101
